Route 1: 15 182 16 165 56 85 53 168 99 128 45 32 31 51 111 198 61 22 23 117 38 108 114 109 151 94 125 160 112 86 189 50 192 101 74 52 129 41 106 70 91 145 126 158 157 33 66 82 154
Route 2: 195 59 12 37 143 9 57 98 72 169 167 184 196 152 68 179 18 190 27 161 40 147 133 119 188 29 65 177 139 21 173 89 110 44 166 55 81 194 107 90 95 116 80 178 83 148 36
Route 3: 92 100 54 140 4 131 124 7 103 102 156 183 48 3 180 43 136 24 6 63 163 187 171 150 130 186 138 5 159 46 135 13 11 121 115 123 137 174 73 146 19 193 120 93 39 96 34 30 64 67
Route 4: 142 153 162 200 149 172 47 49 14 78 132 28 199 155 88 58 176 118 144 71 191 69 113 134 79 17 87 97 76 175
Route 5: 42 197 84 105 127 181 62 25 164 35 10 170 20 26 122 104 77 185 2 141 1 8 60 75
Vehicles: 5
Distance: 4107.15
